NAME:                solver03
COMMENT:             solver03
TYPE:                ATSP
DIMENSION:           4
EDGE_WEIGHT_TYPE:    EXPLICIT
EDGE_WEIGHT_FORMAT:  FULL_MATRIX

EDGE_WEIGHT_SECTION
99990 80 500 80 
80 99990 260 0 
480 240 99990 240 
80 0 260 99990 
EOF
